units metal

read_data GB1_30.lmp
mass 1 12.0

pair_style lcbop
pair_coeff * * C.lcbop C

variable etol equal 0.0
variable ftol equal 1e-8
variable maxiter equal 1000
variable maxeval equal 100000

minimize ${etol} ${ftol} ${maxiter} ${maxeval}

write_data GB1_30.lmp
